HUN,8,6,713
1,27,5,22,4,28,2,24,0,27,3,23
4,29,0,24,2,30,5,27,1,27,3,27
1,29,3,28,2,23,4,29,0,21,5,29
5,28,0,25,3,27,2,21,1,27,4,25
2,26,4,25,1,29,0,29,5,27,3,25
5,23,1,28,4,23,2,27,0,30,3,26
3,22,4,28,0,24,5,23,2,23,1,22
1,26,3,21,4,28,5,26,0,24,2,21
